
Gurobi 12.0.3 (linux64) logging started Fri Mar 27 01:48:03 2026

Set parameter LogFile to value "/home/solar-wind/WT_Solar_results_bigM100000_thread4/case24_ieee_rts_theta0.12_epsilon0.08_gurobi_seed20000_num_gen38_N_WDR250_load_scaling_factor1_EIFICA_T24_num_Solar5_num_WT10.txt"
Gurobi Optimizer version 12.0.3 build v12.0.3rc0 (linux64 - "Ubuntu 22.04.5 LTS")

CPU model: Intel(R) Xeon(R) Platinum 8378A CPU @ 3.00GHz, instruction set [SSE2|AVX|AVX2|AVX512]
Thread count: 32 physical cores, 64 logical processors, using up to 4 threads

Non-default parameters:
TimeLimit  14400
MIPGap  0.001
Seed  20000
Threads  4

Academic license 2721591 - for non-commercial use only - registered to fa___@mails.neu.edu.cn
Optimize a model with 715588 rows, 2075 columns and 63102568 nonzeros
Model fingerprint: 0x92d11934
Model has 912 quadratic objective terms
Coefficient statistics:
  Matrix range     [3e-07, 6e+01]
  Objective range  [3e+01, 6e+01]
  QObjective range [4e-03, 2e-02]
  Bounds range     [0e+00, 0e+00]
  RHS range        [5e-02, 1e+03]
Presolve removed 524112 rows and 0 columns (presolve time = 5s)...
Presolve removed 524986 rows and 0 columns
Presolve time: 6.62s
Presolved: 190602 rows, 2949 columns, 4443362 nonzeros
Presolved model has 912 quadratic objective terms
Elapsed ordering time = 17s
Elapsed ordering time = 20s
Ordering time: 31.70s
Elapsed ordering time = 32s
Elapsed ordering time = 38s
Elapsed ordering time = 40s
Elapsed ordering time = 45s
Elapsed ordering time = 45s
Elapsed ordering time = 52s
Elapsed ordering time = 58s
Elapsed ordering time = 60s
Elapsed ordering time = 65s
Ordering time: 71.80s

Barrier statistics:
 Dense cols : 663
 AA' NZ     : 3.210e+08
 Factor NZ  : 1.109e+09 (roughly 9.0 GB of memory)
 Factor Ops : 1.055e+13 (roughly 60 seconds per iteration)
 Threads    : 4

                  Objective                Residual
Iter       Primal          Dual         Primal    Dual     Compl     Time
   0   5.85169008e+08 -3.05994091e+08  3.75e+04 9.93e+02  9.92e+05   190s
   1   5.49259159e+08 -2.82001528e+08  3.60e+04 9.52e+02  9.51e+05   190s
   2   5.43843707e+08 -3.36734093e+08  3.57e+04 9.45e+02  9.47e+05   190s
   3   4.92379866e+08 -4.05841684e+08  3.34e+04 8.82e+02  9.06e+05   190s
   4   4.30673411e+08 -4.57686357e+08  3.06e+04 8.02e+02  8.51e+05   191s
   5   3.90080450e+08 -4.60120743e+08  2.86e+04 7.48e+02  7.94e+05   191s
   6   3.42769754e+08 -5.17048344e+08  2.62e+04 6.81e+02  7.68e+05   191s
   7   3.03738167e+08 -5.27992444e+08  2.40e+04 6.23e+02  7.04e+05   191s
   8   2.68898786e+08 -5.35568792e+08  2.20e+04 5.69e+02  6.44e+05   191s
   9   2.42050206e+08 -5.48188158e+08  2.05e+04 5.26e+02  5.96e+05   192s
  10   2.19253554e+08 -5.83063390e+08  1.90e+04 4.87e+02  5.79e+05   192s
  11   1.84702125e+08 -6.00254799e+08  1.67e+04 4.25e+02  5.07e+05   192s
  12   1.65112830e+08 -6.15442599e+08  1.54e+04 3.88e+02  4.64e+05   192s
  13   1.49188369e+08 -6.30839023e+08  1.42e+04 3.58e+02  4.28e+05   192s
  14   1.30531112e+08 -6.47437956e+08  1.27e+04 3.21e+02  3.85e+05   192s
  15   1.14641347e+08 -6.62603103e+08  1.15e+04 2.87e+02  3.46e+05   192s
  16   1.02598466e+08 -6.80470295e+08  1.05e+04 2.62e+02  3.15e+05   193s
  17   9.13374077e+07 -6.99091397e+08  9.61e+03 2.37e+02  2.86e+05   193s
  18   8.02442947e+07 -7.19085853e+08  8.66e+03 2.12e+02  2.57e+05   193s
  19   6.47456266e+07 -7.47860229e+08  7.28e+03 1.76e+02  2.14e+05   193s
  20   5.28517272e+07 -7.75259796e+08  6.13e+03 1.47e+02  1.80e+05   193s
  21   4.34446386e+07 -7.94934784e+08  5.18e+03 1.23e+02  1.51e+05   193s
  22   3.57071202e+07 -8.08288819e+08  4.35e+03 1.03e+02  1.27e+05   193s
  23   2.75522800e+07 -8.18731078e+08  3.44e+03 8.03e+01  1.00e+05   194s
  24   2.17336269e+07 -8.19746219e+08  2.85e+03 6.39e+01  8.04e+04   194s
  25   1.82178852e+07 -8.14485403e+08  2.70e+03 5.38e+01  6.80e+04   194s
  26   1.44542199e+07 -7.99858087e+08  2.27e+03 4.28e+01  5.45e+04   194s
  27   1.15855355e+07 -7.76610092e+08  1.88e+03 3.42e+01  4.39e+04   194s
  28   2.96078687e+06 -6.82714357e+08  1.37e+03 7.72e+00  1.82e+04   194s
  29   2.57507100e+06 -6.28575842e+08  1.15e+03 6.47e+00  1.53e+04   194s
  30   2.18364816e+06 -5.68746889e+08  9.29e+02 5.23e+00  1.25e+04   194s
  31   1.77453448e+06 -4.99015741e+08  7.04e+02 3.96e+00  9.57e+03   195s
  32   1.50945408e+06 -4.70622235e+08  5.55e+02 3.12e+00  8.01e+03   195s
  33   1.23762713e+06 -4.02214173e+08  3.96e+02 2.21e+00  5.80e+03   195s
  34   1.02487799e+06 -3.63931220e+08  2.50e+02 1.43e+00  4.20e+03   195s
  35   8.77581540e+05 -3.01090646e+08  1.42e+02 8.12e-01  2.74e+03   195s
  36   8.28761499e+05 -2.67165807e+08  1.06e+02 6.07e-01  2.20e+03   196s
  37   7.75196673e+05 -2.20252229e+08  6.53e+01 3.72e-01  1.58e+03   196s
  38   7.61278498e+05 -2.07020379e+08  5.10e+01 2.91e-01  1.41e+03   196s
  39   7.51192295e+05 -1.79504038e+08  4.00e+01 2.29e-01  1.17e+03   197s
  40   7.44188377e+05 -1.57418758e+08  3.18e+01 1.82e-01  9.86e+02   197s
  41   7.40440143e+05 -1.41935172e+08  2.64e+01 1.50e-01  8.66e+02   198s
  42   7.38785717e+05 -1.32325763e+08  2.31e+01 1.31e-01  7.95e+02   198s
  43   7.37716919e+05 -1.23938287e+08  2.03e+01 1.16e-01  7.35e+02   199s
  44   7.36607098e+05 -1.11836502e+08  1.68e+01 9.48e-02  6.53e+02   200s
  45   7.36624800e+05 -9.91216030e+07  1.12e+01 6.32e-02  5.66e+02   201s
  46   7.37158309e+05 -9.10342686e+07  8.75e+00 4.92e-02  5.17e+02   203s
  47   7.37921780e+05 -2.06037238e+07  9.41e-02 2.82e-01  1.10e+02   228s
  48   7.33833220e+05  2.11449653e+05  6.52e-03 6.82e-03  2.69e+00   253s
  49   6.81021363e+05  4.68513187e+05  1.90e-03 1.80e-03  1.09e+00   279s
  50   6.63187565e+05  5.20971883e+05  7.51e-04 7.12e-04  7.32e-01   305s
  51   6.46224531e+05  5.91824798e+05  6.12e-04 1.19e-03  2.80e-01   332s
  52   6.42280009e+05  6.14562741e+05  3.64e-05 8.01e-05  1.43e-01   393s
  53   6.39715092e+05  6.29861387e+05  6.62e-11 9.26e-11  5.07e-02   440s
  54   6.38691180e+05  6.34942217e+05  3.90e-10 1.03e-11  1.93e-02   489s
  55   6.38235394e+05  6.37166102e+05  1.91e-10 9.09e-12  5.50e-03   539s
  56   6.38134666e+05  6.37658037e+05  5.02e-10 1.14e-11  2.45e-03   588s
  57   6.38087960e+05  6.37874479e+05  1.09e-09 1.26e-11  1.10e-03   633s
  58   6.38059316e+05  6.38016191e+05  4.59e-10 4.37e-11  2.22e-04   679s
  59   6.38052625e+05  6.38048601e+05  1.16e-09 4.11e-12  2.07e-05   729s
  60   6.38052000e+05  6.38051634e+05  4.36e-09 1.01e-11  1.88e-06   779s
  61   6.38051938e+05  6.38051937e+05  1.49e-10 2.37e-10  1.94e-09   825s

Barrier solved model in 61 iterations and 825.20 seconds (1054.14 work units)
Optimal objective 6.38051938e+05

